NAME : sample16
COMMENT : Sample dataset with 16 nodes
COMMENT : Derived from Zainab
TYPE : TSP
DIMENSION : 16
EDGE_WEIGHT_TYPE : EUC_2D
NODE_COORD_SECTION
1 12.345 23.456
2 34.567 45.678
3 56.789 67.890
4 78.901 90.123
5 98.765 76.543
6 54.321 32.109
7 23.456 87.654
8 45.678 65.432
9 87.654 54.321
10 76.543 21.098
11 34.567 43.210
12 65.432 87.654
13 43.210 65.432
14 21.098 43.210
15 87.654 12.345
16 90.123 98.765
EOF
